NAME : lagg10
COMMENT : 10 randomly generated points
TYPE : TSP
DIMENSION : 10
EDGE_WEIGHT_TYPE : EUC_2D
NODE_COORD_SECTION
1 6035.2957 8959.1535
2 170.9637 4790.073725
3 3314.5013 2428.410912
4 1249.7033 9908.409771
5 7104.6608 3599.165485
6 5213.7984 8118.540404
7 422.5059 9991.194707
8 1292.0745 1708.607787
9 8432.9215 6448.032877
10 2004.9559 1457.309949
EOF